NAME Model5
ROWS
 N  OBJ
 E  c0      
 E  c1      
 E  c2      
 E  c3      
 E  c4      
 E  c5      
 L  c6      
 L  c7      
 L  c8      
 L  c9      
 L  c10     
 L  c11     
 L  c12     
 L  c13     
 L  c14     
 L  c15     
 L  c16     
 L  c17     
 G  c18     
 G  c19     
 G  c20     
 G  c21     
 G  c22     
 G  c23     
 G  c24     
 G  c25     
 G  c26     
 G  c27     
 G  c28     
 G  c29     
 G  c30     
 G  c31     
 G  c32     
 G  c33     
 G  c34     
 G  c35     
 G  c36     
 G  c37     
 G  c38     
 G  c39     
 G  c40     
 G  c41     
 G  c42     
 G  c43     
 G  c44     
 G  c45     
 G  c46     
 G  c47     
 G  c48     
 G  c49     
 G  c50     
 G  c51     
 G  c52     
 G  c53     
 G  c54     
 G  c55     
 G  c56     
 G  c57     
 G  c58     
 G  c59     
 G  c60     
 G  c61     
 G  c62     
 G  c63     
 G  c64     
 G  c65     
 G  c66     
 G  c67     
 G  c68     
 G  c69     
 G  c70     
 G  c71     
 G  c72     
 G  c73     
 G  c74     
 G  c75     
 G  c76     
 G  c77     
 G  c78     
 G  c79     
 G  c80     
 G  c81     
 G  c82     
 G  c83     
 G  c84     
 G  c85     
 G  c86     
 G  c87     
 G  c88     
 G  c89     
 G  c90     
 G  c91     
 G  c92     
 G  c93     
 G  c94     
 G  c95     
 G  c96     
 G  c97     
 G  c98     
 G  c99     
 G  c100    
 G  c101    
 G  c102    
 G  c103    
 G  c104    
 G  c105    
 G  c106    
 G  c107    
 G  c108    
 G  c109    
 G  c110    
 G  c111    
 L  c112    
 G  c113    
 L  c114    
 G  c115    
 L  c116    
 G  c117    
 L  c118    
 G  c119    
 L  c120    
 G  c121    
 L  c122    
 G  OF_constraint
COLUMNS
    MARKER    'MARKER'                 'INTORG'
    y[0,0,0]  c0        1
    y[0,0,0]  c6        -1000000
    y[0,0,0]  c18       -1000000
    y[0,0,0]  c19       -1000000
    y[0,0,0]  c22       -1000000
    y[0,0,0]  c23       -1000000
    y[0,0,0]  c26       -1000000
    y[0,0,0]  c27       -1000000
    y[0,0,0]  c30       -1000000
    y[0,0,0]  c31       -1000000
    y[0,0,0]  c34       -1000000
    y[0,0,0]  c35       -1000000
    y[0,0,0]  c38       -1000000
    y[0,0,0]  c39       -1000000
    y[0,0,0]  c111      64
    y[0,0,0]  c112      64
    y[0,0,1]  c0        1
    y[0,0,1]  c7        -1000000
    y[0,0,1]  c20       -1000000
    y[0,0,1]  c21       -1000000
    y[0,0,1]  c24       -1000000
    y[0,0,1]  c25       -1000000
    y[0,0,1]  c28       -1000000
    y[0,0,1]  c29       -1000000
    y[0,0,1]  c32       -1000000
    y[0,0,1]  c33       -1000000
    y[0,0,1]  c36       -1000000
    y[0,0,1]  c37       -1000000
    y[0,0,1]  c40       -1000000
    y[0,0,1]  c41       -1000000
    y[0,0,1]  c113      71
    y[0,0,1]  c114      71
    y[0,1,0]  c1        1
    y[0,1,0]  c8        -1000000
    y[0,1,0]  c18       -1000000
    y[0,1,0]  c19       -1000000
    y[0,1,0]  c38       -1000000
    y[0,1,0]  c39       -1000000
    y[0,1,0]  c42       -1000000
    y[0,1,0]  c43       -1000000
    y[0,1,0]  c46       -1000000
    y[0,1,0]  c47       -1000000
    y[0,1,0]  c50       -1000000
    y[0,1,0]  c51       -1000000
    y[0,1,0]  c54       -1000000
    y[0,1,0]  c55       -1000000
    y[0,1,0]  c93       -480
    y[0,1,0]  c108      -43
    y[0,1,1]  c1        1
    y[0,1,1]  c9        -1000000
    y[0,1,1]  c20       -1000000
    y[0,1,1]  c21       -1000000
    y[0,1,1]  c40       -1000000
    y[0,1,1]  c41       -1000000
    y[0,1,1]  c44       -1000000
    y[0,1,1]  c45       -1000000
    y[0,1,1]  c48       -1000000
    y[0,1,1]  c49       -1000000
    y[0,1,1]  c52       -1000000
    y[0,1,1]  c53       -1000000
    y[0,1,1]  c56       -1000000
    y[0,1,1]  c57       -1000000
    y[0,1,1]  c95       -480
    y[0,1,1]  c108      -36
    y[1,0,0]  c2        1
    y[1,0,0]  c10       -1000000
    y[1,0,0]  c22       -1000000
    y[1,0,0]  c23       -1000000
    y[1,0,0]  c42       -1000000
    y[1,0,0]  c43       -1000000
    y[1,0,0]  c58       -1000000
    y[1,0,0]  c59       -1000000
    y[1,0,0]  c62       -1000000
    y[1,0,0]  c63       -1000000
    y[1,0,0]  c66       -1000000
    y[1,0,0]  c67       -1000000
    y[1,0,0]  c70       -1000000
    y[1,0,0]  c71       -1000000
    y[1,0,0]  c115      36
    y[1,0,0]  c116      36
    y[1,0,1]  c2        1
    y[1,0,1]  c11       -1000000
    y[1,0,1]  c24       -1000000
    y[1,0,1]  c25       -1000000
    y[1,0,1]  c44       -1000000
    y[1,0,1]  c45       -1000000
    y[1,0,1]  c60       -1000000
    y[1,0,1]  c61       -1000000
    y[1,0,1]  c64       -1000000
    y[1,0,1]  c65       -1000000
    y[1,0,1]  c68       -1000000
    y[1,0,1]  c69       -1000000
    y[1,0,1]  c72       -1000000
    y[1,0,1]  c73       -1000000
    y[1,0,1]  c117      21
    y[1,0,1]  c118      21
    y[1,1,0]  c3        1
    y[1,1,0]  c12       -1000000
    y[1,1,0]  c26       -1000000
    y[1,1,0]  c27       -1000000
    y[1,1,0]  c46       -1000000
    y[1,1,0]  c47       -1000000
    y[1,1,0]  c58       -1000000
    y[1,1,0]  c59       -1000000
    y[1,1,0]  c70       -1000000
    y[1,1,0]  c71       -1000000
    y[1,1,0]  c74       -1000000
    y[1,1,0]  c75       -1000000
    y[1,1,0]  c78       -1000000
    y[1,1,0]  c79       -1000000
    y[1,1,0]  c99       -480
    y[1,1,0]  c109      -34
    y[1,1,1]  c3        1
    y[1,1,1]  c13       -1000000
    y[1,1,1]  c28       -1000000
    y[1,1,1]  c29       -1000000
    y[1,1,1]  c48       -1000000
    y[1,1,1]  c49       -1000000
    y[1,1,1]  c60       -1000000
    y[1,1,1]  c61       -1000000
    y[1,1,1]  c72       -1000000
    y[1,1,1]  c73       -1000000
    y[1,1,1]  c76       -1000000
    y[1,1,1]  c77       -1000000
    y[1,1,1]  c80       -1000000
    y[1,1,1]  c81       -1000000
    y[1,1,1]  c101      -480
    y[1,1,1]  c109      -53
    y[2,0,0]  c4        1
    y[2,0,0]  c14       -1000000
    y[2,0,0]  c30       -1000000
    y[2,0,0]  c31       -1000000
    y[2,0,0]  c50       -1000000
    y[2,0,0]  c51       -1000000
    y[2,0,0]  c62       -1000000
    y[2,0,0]  c63       -1000000
    y[2,0,0]  c74       -1000000
    y[2,0,0]  c75       -1000000
    y[2,0,0]  c82       -1000000
    y[2,0,0]  c83       -1000000
    y[2,0,0]  c86       -1000000
    y[2,0,0]  c87       -1000000
    y[2,0,0]  c119      43
    y[2,0,0]  c120      43
    y[2,0,1]  c4        1
    y[2,0,1]  c15       -1000000
    y[2,0,1]  c32       -1000000
    y[2,0,1]  c33       -1000000
    y[2,0,1]  c52       -1000000
    y[2,0,1]  c53       -1000000
    y[2,0,1]  c64       -1000000
    y[2,0,1]  c65       -1000000
    y[2,0,1]  c76       -1000000
    y[2,0,1]  c77       -1000000
    y[2,0,1]  c84       -1000000
    y[2,0,1]  c85       -1000000
    y[2,0,1]  c88       -1000000
    y[2,0,1]  c89       -1000000
    y[2,0,1]  c121      37
    y[2,0,1]  c122      37
    y[2,1,0]  c5        1
    y[2,1,0]  c16       -1000000
    y[2,1,0]  c34       -1000000
    y[2,1,0]  c35       -1000000
    y[2,1,0]  c54       -1000000
    y[2,1,0]  c55       -1000000
    y[2,1,0]  c66       -1000000
    y[2,1,0]  c67       -1000000
    y[2,1,0]  c78       -1000000
    y[2,1,0]  c79       -1000000
    y[2,1,0]  c82       -1000000
    y[2,1,0]  c83       -1000000
    y[2,1,0]  c86       -1000000
    y[2,1,0]  c87       -1000000
    y[2,1,0]  c105      -480
    y[2,1,0]  c110      -21
    y[2,1,1]  c5        1
    y[2,1,1]  c17       -1000000
    y[2,1,1]  c36       -1000000
    y[2,1,1]  c37       -1000000
    y[2,1,1]  c56       -1000000
    y[2,1,1]  c57       -1000000
    y[2,1,1]  c68       -1000000
    y[2,1,1]  c69       -1000000
    y[2,1,1]  c80       -1000000
    y[2,1,1]  c81       -1000000
    y[2,1,1]  c84       -1000000
    y[2,1,1]  c85       -1000000
    y[2,1,1]  c88       -1000000
    y[2,1,1]  c89       -1000000
    y[2,1,1]  c107      -480
    y[2,1,1]  c110      -35
    x[0,0,0,0]  OBJ       0
    x[0,0,0,1]  c18       -1000000
    x[0,0,0,1]  c19       1000000
    x[0,0,0,1]  c20       -1000000
    x[0,0,0,1]  c21       1000000
    x[0,0,1,0]  c22       -1000000
    x[0,0,1,0]  c23       1000000
    x[0,0,1,0]  c24       -1000000
    x[0,0,1,0]  c25       1000000
    x[0,0,1,1]  c26       -1000000
    x[0,0,1,1]  c27       1000000
    x[0,0,1,1]  c28       -1000000
    x[0,0,1,1]  c29       1000000
    x[0,0,2,0]  c30       -1000000
    x[0,0,2,0]  c31       1000000
    x[0,0,2,0]  c32       -1000000
    x[0,0,2,0]  c33       1000000
    x[0,0,2,1]  c34       -1000000
    x[0,0,2,1]  c35       1000000
    x[0,0,2,1]  c36       -1000000
    x[0,0,2,1]  c37       1000000
    x[0,1,0,0]  c38       -1000000
    x[0,1,0,0]  c39       1000000
    x[0,1,0,0]  c40       -1000000
    x[0,1,0,0]  c41       1000000
    x[0,1,0,1]  OBJ       0
    x[0,1,1,0]  c42       -1000000
    x[0,1,1,0]  c43       1000000
    x[0,1,1,0]  c44       -1000000
    x[0,1,1,0]  c45       1000000
    x[0,1,1,1]  c46       -1000000
    x[0,1,1,1]  c47       1000000
    x[0,1,1,1]  c48       -1000000
    x[0,1,1,1]  c49       1000000
    x[0,1,2,0]  c50       -1000000
    x[0,1,2,0]  c51       1000000
    x[0,1,2,0]  c52       -1000000
    x[0,1,2,0]  c53       1000000
    x[0,1,2,1]  c54       -1000000
    x[0,1,2,1]  c55       1000000
    x[0,1,2,1]  c56       -1000000
    x[0,1,2,1]  c57       1000000
    x[1,0,0,0]  OBJ       0
    x[1,0,0,1]  OBJ       0
    x[1,0,1,0]  OBJ       0
    x[1,0,1,1]  c58       -1000000
    x[1,0,1,1]  c59       1000000
    x[1,0,1,1]  c60       -1000000
    x[1,0,1,1]  c61       1000000
    x[1,0,2,0]  c62       -1000000
    x[1,0,2,0]  c63       1000000
    x[1,0,2,0]  c64       -1000000
    x[1,0,2,0]  c65       1000000
    x[1,0,2,1]  c66       -1000000
    x[1,0,2,1]  c67       1000000
    x[1,0,2,1]  c68       -1000000
    x[1,0,2,1]  c69       1000000
    x[1,1,0,0]  OBJ       0
    x[1,1,0,1]  OBJ       0
    x[1,1,1,0]  c70       -1000000
    x[1,1,1,0]  c71       1000000
    x[1,1,1,0]  c72       -1000000
    x[1,1,1,0]  c73       1000000
    x[1,1,1,1]  OBJ       0
    x[1,1,2,0]  c74       -1000000
    x[1,1,2,0]  c75       1000000
    x[1,1,2,0]  c76       -1000000
    x[1,1,2,0]  c77       1000000
    x[1,1,2,1]  c78       -1000000
    x[1,1,2,1]  c79       1000000
    x[1,1,2,1]  c80       -1000000
    x[1,1,2,1]  c81       1000000
    x[2,0,0,0]  OBJ       0
    x[2,0,0,1]  OBJ       0
    x[2,0,1,0]  OBJ       0
    x[2,0,1,1]  OBJ       0
    x[2,0,2,0]  OBJ       0
    x[2,0,2,1]  c82       -1000000
    x[2,0,2,1]  c83       1000000
    x[2,0,2,1]  c84       -1000000
    x[2,0,2,1]  c85       1000000
    x[2,1,0,0]  OBJ       0
    x[2,1,0,1]  OBJ       0
    x[2,1,1,0]  OBJ       0
    x[2,1,1,1]  OBJ       0
    x[2,1,2,0]  c86       -1000000
    x[2,1,2,0]  c87       1000000
    x[2,1,2,0]  c88       -1000000
    x[2,1,2,0]  c89       1000000
    x[2,1,2,1]  OBJ       0
    MARKER    'MARKER'                 'INTEND'
    s[0,0,0]  c6        1
    s[0,0,0]  c18       1
    s[0,0,0]  c19       -1
    s[0,0,0]  c22       1
    s[0,0,0]  c23       -1
    s[0,0,0]  c26       1
    s[0,0,0]  c27       -1
    s[0,0,0]  c30       1
    s[0,0,0]  c31       -1
    s[0,0,0]  c34       1
    s[0,0,0]  c35       -1
    s[0,0,0]  c38       -1
    s[0,0,0]  c39       1
    s[0,0,0]  c90       1
    s[0,0,0]  c108      1
    s[0,0,0]  c111      1
    s[0,0,0]  c112      1
    s[0,0,1]  c7        1
    s[0,0,1]  c20       1
    s[0,0,1]  c21       -1
    s[0,0,1]  c24       1
    s[0,0,1]  c25       -1
    s[0,0,1]  c28       1
    s[0,0,1]  c29       -1
    s[0,0,1]  c32       1
    s[0,0,1]  c33       -1
    s[0,0,1]  c36       1
    s[0,0,1]  c37       -1
    s[0,0,1]  c40       -1
    s[0,0,1]  c41       1
    s[0,0,1]  c91       1
    s[0,0,1]  c108      1
    s[0,0,1]  c113      1
    s[0,0,1]  c114      1
    s[0,1,0]  c8        1
    s[0,1,0]  c18       -1
    s[0,1,0]  c19       1
    s[0,1,0]  c38       1
    s[0,1,0]  c39       -1
    s[0,1,0]  c42       1
    s[0,1,0]  c43       -1
    s[0,1,0]  c46       1
    s[0,1,0]  c47       -1
    s[0,1,0]  c50       1
    s[0,1,0]  c51       -1
    s[0,1,0]  c54       1
    s[0,1,0]  c55       -1
    s[0,1,0]  c92       1
    s[0,1,0]  c93       1
    s[0,1,0]  c108      -1
    s[0,1,1]  c9        1
    s[0,1,1]  c20       -1
    s[0,1,1]  c21       1
    s[0,1,1]  c40       1
    s[0,1,1]  c41       -1
    s[0,1,1]  c44       1
    s[0,1,1]  c45       -1
    s[0,1,1]  c48       1
    s[0,1,1]  c49       -1
    s[0,1,1]  c52       1
    s[0,1,1]  c53       -1
    s[0,1,1]  c56       1
    s[0,1,1]  c57       -1
    s[0,1,1]  c94       1
    s[0,1,1]  c95       1
    s[0,1,1]  c108      -1
    s[1,0,0]  c10       1
    s[1,0,0]  c22       -1
    s[1,0,0]  c23       1
    s[1,0,0]  c42       -1
    s[1,0,0]  c43       1
    s[1,0,0]  c58       1
    s[1,0,0]  c59       -1
    s[1,0,0]  c62       1
    s[1,0,0]  c63       -1
    s[1,0,0]  c66       1
    s[1,0,0]  c67       -1
    s[1,0,0]  c70       -1
    s[1,0,0]  c71       1
    s[1,0,0]  c96       1
    s[1,0,0]  c109      1
    s[1,0,0]  c115      1
    s[1,0,0]  c116      1
    s[1,0,1]  c11       1
    s[1,0,1]  c24       -1
    s[1,0,1]  c25       1
    s[1,0,1]  c44       -1
    s[1,0,1]  c45       1
    s[1,0,1]  c60       1
    s[1,0,1]  c61       -1
    s[1,0,1]  c64       1
    s[1,0,1]  c65       -1
    s[1,0,1]  c68       1
    s[1,0,1]  c69       -1
    s[1,0,1]  c72       -1
    s[1,0,1]  c73       1
    s[1,0,1]  c97       1
    s[1,0,1]  c109      1
    s[1,0,1]  c117      1
    s[1,0,1]  c118      1
    s[1,1,0]  c12       1
    s[1,1,0]  c26       -1
    s[1,1,0]  c27       1
    s[1,1,0]  c46       -1
    s[1,1,0]  c47       1
    s[1,1,0]  c58       -1
    s[1,1,0]  c59       1
    s[1,1,0]  c70       1
    s[1,1,0]  c71       -1
    s[1,1,0]  c74       1
    s[1,1,0]  c75       -1
    s[1,1,0]  c78       1
    s[1,1,0]  c79       -1
    s[1,1,0]  c98       1
    s[1,1,0]  c99       1
    s[1,1,0]  c109      -1
    s[1,1,1]  c13       1
    s[1,1,1]  c28       -1
    s[1,1,1]  c29       1
    s[1,1,1]  c48       -1
    s[1,1,1]  c49       1
    s[1,1,1]  c60       -1
    s[1,1,1]  c61       1
    s[1,1,1]  c72       1
    s[1,1,1]  c73       -1
    s[1,1,1]  c76       1
    s[1,1,1]  c77       -1
    s[1,1,1]  c80       1
    s[1,1,1]  c81       -1
    s[1,1,1]  c100      1
    s[1,1,1]  c101      1
    s[1,1,1]  c109      -1
    s[2,0,0]  c14       1
    s[2,0,0]  c30       -1
    s[2,0,0]  c31       1
    s[2,0,0]  c50       -1
    s[2,0,0]  c51       1
    s[2,0,0]  c62       -1
    s[2,0,0]  c63       1
    s[2,0,0]  c74       -1
    s[2,0,0]  c75       1
    s[2,0,0]  c82       1
    s[2,0,0]  c83       -1
    s[2,0,0]  c86       -1
    s[2,0,0]  c87       1
    s[2,0,0]  c102      1
    s[2,0,0]  c110      1
    s[2,0,0]  c119      1
    s[2,0,0]  c120      1
    s[2,0,1]  c15       1
    s[2,0,1]  c32       -1
    s[2,0,1]  c33       1
    s[2,0,1]  c52       -1
    s[2,0,1]  c53       1
    s[2,0,1]  c64       -1
    s[2,0,1]  c65       1
    s[2,0,1]  c76       -1
    s[2,0,1]  c77       1
    s[2,0,1]  c84       1
    s[2,0,1]  c85       -1
    s[2,0,1]  c88       -1
    s[2,0,1]  c89       1
    s[2,0,1]  c103      1
    s[2,0,1]  c110      1
    s[2,0,1]  c121      1
    s[2,0,1]  c122      1
    s[2,1,0]  c16       1
    s[2,1,0]  c34       -1
    s[2,1,0]  c35       1
    s[2,1,0]  c54       -1
    s[2,1,0]  c55       1
    s[2,1,0]  c66       -1
    s[2,1,0]  c67       1
    s[2,1,0]  c78       -1
    s[2,1,0]  c79       1
    s[2,1,0]  c82       -1
    s[2,1,0]  c83       1
    s[2,1,0]  c86       1
    s[2,1,0]  c87       -1
    s[2,1,0]  c104      1
    s[2,1,0]  c105      1
    s[2,1,0]  c110      -1
    s[2,1,1]  c17       1
    s[2,1,1]  c36       -1
    s[2,1,1]  c37       1
    s[2,1,1]  c56       -1
    s[2,1,1]  c57       1
    s[2,1,1]  c68       -1
    s[2,1,1]  c69       1
    s[2,1,1]  c80       -1
    s[2,1,1]  c81       1
    s[2,1,1]  c84       -1
    s[2,1,1]  c85       1
    s[2,1,1]  c88       1
    s[2,1,1]  c89       -1
    s[2,1,1]  c106      1
    s[2,1,1]  c107      1
    s[2,1,1]  c110      -1
    MARKER    'MARKER'                 'INTORG'
    Z_FO      OBJ       1
    Z_FO      OF_constraint  1
    C61       c111      -1000000
    C61       c112      -1000000
    C61       OF_constraint  416
    C62       c113      -1000000
    C62       c114      -1000000
    C62       OF_constraint  409
    C63       c115      -1000000
    C63       c116      -1000000
    C63       OF_constraint  444
    C64       c117      -1000000
    C64       c118      -1000000
    C64       OF_constraint  459
    C65       c119      -1000000
    C65       c120      -1000000
    C65       OF_constraint  437
    C66       c121      -1000000
    C66       c122      -1000000
    C66       OF_constraint  443
    MARKER    'MARKER'                 'INTEND'
RHS
    RHS1      c0        1
    RHS1      c1        1
    RHS1      c2        1
    RHS1      c3        1
    RHS1      c4        1
    RHS1      c5        1
    RHS1      c18       -2999876
    RHS1      c19       -1999777
    RHS1      c20       -2999900
    RHS1      c21       -1999745
    RHS1      c22       -2999904
    RHS1      c23       -1999783
    RHS1      c24       -2999811
    RHS1      c25       -1999755
    RHS1      c26       -2999768
    RHS1      c27       -1999830
    RHS1      c28       -2999891
    RHS1      c29       -1999851
    RHS1      c30       -2999804
    RHS1      c31       -1999798
    RHS1      c32       -2999937
    RHS1      c33       -1999869
    RHS1      c34       -2999901
    RHS1      c35       -1999771
    RHS1      c36       -2999785
    RHS1      c37       -1999779
    RHS1      c38       -2999777
    RHS1      c39       -1999876
    RHS1      c40       -2999745
    RHS1      c41       -1999900
    RHS1      c42       -2999830
    RHS1      c43       -1999813
    RHS1      c44       -2999781
    RHS1      c45       -1999784
    RHS1      c46       -2999801
    RHS1      c47       -1999845
    RHS1      c48       -2999829
    RHS1      c49       -1999768
    RHS1      c50       -2999897
    RHS1      c51       -1999772
    RHS1      c52       -2999937
    RHS1      c53       -1999908
    RHS1      c54       -2999927
    RHS1      c55       -1999931
    RHS1      c56       -2999660
    RHS1      c57       -1999700
    RHS1      c58       -2999676
    RHS1      c59       -1999904
    RHS1      c60       -2999800
    RHS1      c61       -1999734
    RHS1      c62       -2999637
    RHS1      c63       -1999938
    RHS1      c64       -2999699
    RHS1      c65       -1999820
    RHS1      c66       -2999880
    RHS1      c67       -1999856
    RHS1      c68       -2999921
    RHS1      c69       -1999811
    RHS1      c70       -2999904
    RHS1      c71       -1999676
    RHS1      c72       -2999734
    RHS1      c73       -1999800
    RHS1      c74       -2999767
    RHS1      c75       -1999786
    RHS1      c76       -2999783
    RHS1      c77       -1999851
    RHS1      c78       -2999895
    RHS1      c79       -1999902
    RHS1      c80       -2999877
    RHS1      c81       -1999887
    RHS1      c82       -2999895
    RHS1      c83       -1999767
    RHS1      c84       -2999869
    RHS1      c85       -1999755
    RHS1      c86       -2999767
    RHS1      c87       -1999895
    RHS1      c88       -2999755
    RHS1      c89       -1999869
    RHS1      c111      -999520
    RHS1      c112      480
    RHS1      c113      -999520
    RHS1      c114      480
    RHS1      c115      -999520
    RHS1      c116      480
    RHS1      c117      -999520
    RHS1      c118      480
    RHS1      c119      -999520
    RHS1      c120      480
    RHS1      c121      -999520
    RHS1      c122      480
BOUNDS
 BV BND1      y[0,0,0]
 BV BND1      y[0,0,1]
 BV BND1      y[0,1,0]
 BV BND1      y[0,1,1]
 BV BND1      y[1,0,0]
 BV BND1      y[1,0,1]
 BV BND1      y[1,1,0]
 BV BND1      y[1,1,1]
 BV BND1      y[2,0,0]
 BV BND1      y[2,0,1]
 BV BND1      y[2,1,0]
 BV BND1      y[2,1,1]
 BV BND1      x[0,0,0,0]
 BV BND1      x[0,0,0,1]
 BV BND1      x[0,0,1,0]
 BV BND1      x[0,0,1,1]
 BV BND1      x[0,0,2,0]
 BV BND1      x[0,0,2,1]
 BV BND1      x[0,1,0,0]
 BV BND1      x[0,1,0,1]
 BV BND1      x[0,1,1,0]
 BV BND1      x[0,1,1,1]
 BV BND1      x[0,1,2,0]
 BV BND1      x[0,1,2,1]
 BV BND1      x[1,0,0,0]
 BV BND1      x[1,0,0,1]
 BV BND1      x[1,0,1,0]
 BV BND1      x[1,0,1,1]
 BV BND1      x[1,0,2,0]
 BV BND1      x[1,0,2,1]
 BV BND1      x[1,1,0,0]
 BV BND1      x[1,1,0,1]
 BV BND1      x[1,1,1,0]
 BV BND1      x[1,1,1,1]
 BV BND1      x[1,1,2,0]
 BV BND1      x[1,1,2,1]
 BV BND1      x[2,0,0,0]
 BV BND1      x[2,0,0,1]
 BV BND1      x[2,0,1,0]
 BV BND1      x[2,0,1,1]
 BV BND1      x[2,0,2,0]
 BV BND1      x[2,0,2,1]
 BV BND1      x[2,1,0,0]
 BV BND1      x[2,1,0,1]
 BV BND1      x[2,1,1,0]
 BV BND1      x[2,1,1,1]
 BV BND1      x[2,1,2,0]
 BV BND1      x[2,1,2,1]
 LI BND1      Z_FO      0
 BV BND1      C61     
 BV BND1      C62     
 BV BND1      C63     
 BV BND1      C64     
 BV BND1      C65     
 BV BND1      C66     
QCMATRIX   OF_constraint
    s[0,0,0]  C61       -0.5
    C61       s[0,0,0]  -0.5
    s[0,0,1]  C62       -0.5
    C62       s[0,0,1]  -0.5
    s[1,0,0]  C63       -0.5
    C63       s[1,0,0]  -0.5
    s[1,0,1]  C64       -0.5
    C64       s[1,0,1]  -0.5
    s[2,0,0]  C65       -0.5
    C65       s[2,0,0]  -0.5
    s[2,0,1]  C66       -0.5
    C66       s[2,0,1]  -0.5
ENDATA
